Geographic Exponential Decay
40 44 125 90 195 242 219 177 74 80 233 273 254 209 292 227 109 248 170 231 158 157 307 264 116 283 46 266 79 308 136 152 318 73 253 113 31 309 28 3 101
p edge 320 325
e 0 243 1.0
e 1 115 1.0
e 1 0 1.0
e 2 110 6.0
e 2 1 1.0
e 3 94 49.0
e 3 282 2.0
e 3 41 64.0
e 3 265 19.0
e 3 52 8.0
e 3 2 70.0
e 4 174 8.0
e 4 3 87.0
e 5 251 5.0
e 5 4 6.0
e 6 224 2.0
e 6 5 3.0
e 7 79 77.0
e 8 33 1.0
e 8 6 3.0
e 9 86 5.0
e 9 8 4.0
e 10 254 10.0
e 11 175 1.0
e 11 9 1.0
e 12 313 23.0
e 12 140 25.0
e 13 124 16.0
e 13 65 17.0
e 13 11 1.0
e 14 264 76.0
e 15 166 3.0
e 15 13 24.0
e 16 176 3.0
e 16 15 1.0
e 17 180 5.0
e 17 16 9.0
e 18 125 23.0
e 18 17 8.0
e 19 127 4.0
e 19 18 5.0
e 20 266 48.0
e 21 22 29.0
e 21 228 12.0
e 21 48 43.0
e 21 19 26.0
e 23 308 65.0
e 23 21 34.0
e 24 32 2.0
e 24 23 3.0
e 25 292 53.0
e 26 188 2.0
e 26 24 5.0
e 27 216 4.0
e 27 26 1.0
e 28 303 87.0
e 28 116 58.0
e 28 183 61.0
e 28 171 43.0
e 28 192 47.0
e 29 167 8.0
e 29 27 1.0
e 30 177 30.0
e 31 294 9.0
e 31 46 42.0
e 31 95 36.0
e 31 80 66.0
e 31 198 10.0
e 34 64 9.0
e 34 29 1.0
e 35 71 2.0
e 35 34 1.0
e 36 266 81.0
e 37 288 1.0
e 37 35 1.0
e 38 181 4.0
e 38 37 2.0
e 39 60 4.0
e 39 38 4.0
e 40 85 25.0
e 40 138 16.0
e 40 39 16.0
e 42 49 3.0
e 42 40 16.0
e 43 44 99.0
e 43 42 1.0
e 44 45 78.0
e 44 226 56.0
e 44 146 65.0
e 44 274 5.0
e 46 227 87.0
e 46 77 79.0
e 46 78 34.0
e 46 272 92.0
e 47 70 6.0
e 47 43 1.0
e 50 199 12.0
e 50 47 6.0
e 51 237 14.0
e 51 208 24.0
e 51 50 1.0
e 53 163 6.0
e 53 51 7.0
e 54 87 36.0
e 55 101 44.0
e 55 53 2.0
e 56 109 97.0
e 57 76 1.0
e 57 55 1.0
e 58 230 9.0
e 58 236 18.0
e 59 250 6.0
e 59 57 1.0
e 61 286 3.0
e 61 59 1.0
e 62 268 3.0
e 62 61 3.0
e 63 253 98.0
e 64 103 18.0
e 66 108 1.0
e 66 62 1.0
e 67 68 8.0
e 67 66 7.0
e 69 72 1.0
e 69 67 11.0
e 73 74 58.0
e 73 261 1.0
e 73 75 26.0
e 73 84 37.0
e 73 96 50.0
e 74 79 56.0
e 74 80 83.0
e 74 203 43.0
e 74 133 82.0
e 79 229 23.0
e 79 263 83.0
e 79 80 30.0
e 80 81 6.0
e 80 252 28.0
e 82 168 5.0
e 82 69 2.0
e 83 177 23.0
e 87 88 11.0
e 87 130 4.0
e 89 241 11.0
e 89 82 2.0
e 90 260 43.0
e 90 136 57.0
e 90 283 17.0
e 90 91 48.0
e 90 239 79.0
e 92 134 2.0
e 92 89 6.0
e 93 271 19.0
e 93 191 15.0
e 93 92 22.0
e 97 318 35.0
e 98 99 22.0
e 99 183 6.0
e 100 122 1.0
e 100 93 6.0
e 101 196 68.0
e 101 284 56.0
e 101 102 50.0
e 101 247 53.0
e 104 310 11.0
e 104 100 2.0
e 105 106 18.0
e 105 107 15.0
e 105 104 6.0
e 109 202 3.0
e 109 111 26.0
e 109 112 36.0
e 109 113 100.0
e 113 145 53.0
e 113 114 50.0
e 113 231 37.0
e 113 116 94.0
e 116 117 30.0
e 116 244 2.0
e 116 118 57.0
e 119 148 2.0
e 119 267 16.0
e 119 105 9.0
e 120 158 92.0
e 120 119 14.0
e 121 201 10.0
e 121 120 11.0
e 123 285 2.0
e 123 121 5.0
e 125 126 64.0
e 125 128 44.0
e 125 129 15.0
e 125 130 68.0
e 131 151 8.0
e 131 123 11.0
e 132 135 5.0
e 132 131 9.0
e 136 197 53.0
e 136 137 25.0
e 136 139 85.0
e 136 140 60.0
e 141 283 38.0
e 141 142 13.0
e 143 172 1.0
e 143 132 1.0
e 144 154 6.0
e 144 143 2.0
e 147 238 1.0
e 147 144 2.0
e 149 150 12.0
e 149 147 2.0
e 152 153 57.0
e 152 154 57.0
e 152 155 1.0
e 152 279 59.0
e 152 246 74.0
e 156 218 8.0
e 156 149 4.0
e 157 184 51.0
e 157 158 94.0
e 157 205 94.0
e 157 159 6.0
e 157 314 49.0
e 158 287 16.0
e 158 160 11.0
e 158 161 61.0
e 161 162 12.0
e 164 253 67.0
e 165 289 30.0
e 166 169 16.0
e 170 173 11.0
e 170 275 11.0
e 170 177 15.0
e 170 178 64.0
e 170 269 11.0
e 177 178 84.0
e 177 270 59.0
e 178 203 30.0
e 179 182 10.0
e 179 156 11.0
e 185 186 1.0
e 185 179 3.0
e 187 189 1.0
e 187 185 1.0
e 190 193 7.0
e 190 187 10.0
e 194 195 37.0
e 195 200 21.0
e 195 253 33.0
e 195 215 21.0
e 195 277 85.0
e 204 206 1.0
e 204 190 8.0
e 207 208 18.0
e 209 255 62.0
e 209 210 61.0
e 209 211 84.0
e 209 212 55.0
e 209 213 50.0
e 209 204 77.0
e 214 217 1.0
e 214 209 59.0
e 219 220 57.0
e 219 221 12.0
e 219 240 55.0
e 219 222 64.0
e 219 223 10.0
e 219 214 71.0
e 225 227 77.0
e 227 234 66.0
e 227 253 42.0
e 227 231 87.0
e 231 232 74.0
e 231 233 64.0
e 231 235 10.0
e 233 280 17.0
e 233 236 16.0
e 233 242 75.0
e 233 245 50.0
e 242 248 97.0
e 242 249 93.0
e 242 253 63.0
e 242 264 4.0
e 248 254 48.0
e 248 292 100.0
e 248 256 8.0
e 248 257 88.0
e 254 257 17.0
e 254 258 77.0
e 254 259 49.0
e 262 296 4.0
e 262 219 27.0
e 264 266 6.0
e 264 273 58.0
e 264 276 35.0
e 266 273 58.0
e 266 278 86.0
e 273 281 15.0
e 273 282 6.0
e 273 283 31.0
e 283 289 79.0
e 283 290 41.0
e 289 291 17.0
e 292 293 56.0
e 292 295 74.0
e 292 297 54.0
e 295 298 10.0
e 299 300 2.0
e 299 262 5.0
e 301 302 1.0
e 301 299 4.0
e 304 305 5.0
e 304 301 8.0
e 306 307 53.0
e 307 308 87.0
e 307 309 80.0
e 307 311 4.0
e 307 312 65.0
e 308 309 67.0
e 308 315 42.0
e 308 316 38.0
e 309 317 83.0
e 309 318 2.0
e 309 319 76.0
